data/processed_heuristic-threshold/instances/1/7/ds_805_courier_1656/pairwise.tsp
NAME: ds_805_courier_1656
TYPE: TSP
COMMENT: nil
DIMENSION: 8
EDGE_WEIGHT_TYPE: EXPLICIT
EDGE_WEIGHT_FORMAT: FULL_MATRIX
EDGE_WEIGHT_SECTION
9999 3299 4974 2919 4107 3916 3342 3847 
3299 9999 1680 509 1001 629 592 755 
4974 1680 9999 2122 1223 1096 1739 1235 
2919 509 2122 9999 1200 1028 990 1260 
4107 1001 1223 1200 9999 540 1464 1241 
3916 629 1096 1028 540 9999 959 703 
3342 592 1739 990 1464 959 9999 517 
3847 755 1235 1260 1241 703 517 9999 
