data/processed_heuristic-threshold/instances/1/7/ds_805_courier_1656/pairwise.sol
8
0 3 1 5 4 2 7 6 
